(declare-const x0 Bool)
(declare-const x1 Bool)
(declare-const x2 Bool)
(declare-const x3 Bool)
(declare-const x4 Bool)
(declare-const x5 Bool)
(declare-const x6 Bool)
(declare-const x7 Bool)
(declare-const x8 Bool)
(declare-const y0 Real)
(declare-const y1 Real)
(declare-const y2 Real)
(declare-const y3 Real)
(declare-const y4 Real)
(declare-const y5 Real)
(declare-const y6 Real)
(declare-const y7 Real)
(declare-const y8 Real)
(declare-const y9 Real)
(assert (= true true))
(assert (< y7 y9))
(assert (and true (or true true)))
(assert (and (or (= 98 y3) (< y3 (+ 14 y7))) (< (+ 84 81) 70)))
(assert (< 96 y5))
(assert (< 33 5))
(assert (or (or (or (and x3 true) (and x7 false)) x8) (= (+ y4 71) (+ 2 10))))
(assert (or (< (+ (+ 14 15) 84) (+ 57 (+ 97 4))) (= (+ 43 97) 83)))
(assert (and x6 false))
(check-sat)
